data;
param n := 5;
param m := 10;

param t [1,1] 16 [1,2] 9 [1,3] 18 [1,4] 12 [1,5] 13 [1,6] 20 [1,7] 19 [1,8] 7 [1,9] 20 [1,10] 8 [2,1] 1 [2,2] 13 [2,3] 2 [2,4] 13 [2,5] 16 [2,6] 20 [2,7] 6 [2,8] 9 [2,9] 17 [2,10] 14 [3,1] 1 [3,2] 5 [3,3] 10 [3,4] 10 [3,5] 12 [3,6] 12 [3,7] 2 [3,8] 8 [3,9] 16 [3,10] 19 [4,1] 3 [4,2] 11 [4,3] 2 [4,4] 3 [4,5] 16 [4,6] 12 [4,7] 20 [4,8] 15 [4,9] 14 [4,10] 11 [5,1] 13 [5,2] 8 [5,3] 7 [5,4] 14 [5,5] 15 [5,6] 2 [5,7] 3 [5,8] 9 [5,9] 6 [5,10] 11;
end;